c This Formular is generated by mcnf
c
c    horn? no 
c    forced? no 
c    mixed sat? no 
c    clause length = 3 
c
p cnf 20  91 
 -2 18 -11 0
19 -9 -17 0
4 18 -2 0
-17 -4 -10 0
11 19 -16 0
-7 18 -4 0
-16 -15 7 0
8 1 -3 0
14 -20 10 0
14 13 19 0
-18 -17 -3 0
9 -8 -5 0
-16 -20 5 0
10 3 14 0
15 6 8 0
-1 11 17 0
20 13 -19 0
-2 -7 3 0
7 2 19 0
2 15 -14 0
-6 14 -15 0
%
0

65 71 56 71 26 33 34 22 65 62 41 68 60 31 81 83 44 16 83 39
